ID_groupA
47365
47365
19372
21446
21446
47365
77671
47365
48071
21446
21446
47365
77671
47365
47365
19372
21446
21446
47365
77671
47365
47365
21446
21446
47365
47365
47365
19372
47365
47365
47365
77671
47365
48071
19372
47365
47365
47365
48071
19372
19372
47365
19372
19372
19372
19372
19372
19372
19372
19372
21446
47365
21446
21446
47365
21446
21446
21446
21446
19372
47365
47365
19372
19372
19372
21446
47365
47365
19372
77671
47365
48071
47365
47365
47365
47365
47365
47365
48071
47365
77671
47365
77671
77671
48071
19372
47365
47365
47365
19372
19372
47365
48071
48071
48071
21446
47365
47365
19372
47365
21446
47365
47365
47365
47365
